
        n = 5;
        m = 5;
        p = [1, 1, 1, 1, 1];
        v = [0.109, 0.391, 0.481, 0.789, 0.976];
        ce = [5.556, 12.897, 18.251, 2.757, 3.138];
        c = array2d(1..5, 1..5, [0, 2.427, 3.309, 2.866, 1.598, 0.575, 0, 0.932, 2.23, 4.082, 2.177, 3.632, 0, 2.745, 0.728, 3.222, 0.569, 1.791, 0, 4.467, 2.561, 2.53, 0.399, 3.137, 0]);
        ct = 16.38;
        maxM = 5;
    